language ESSENCE' 1.0
letting initGrid be [
[3, 2, 1, 4, 2, 1], 
[3, 2, 3, 3, 1, 4], 
[2, 1, 2, 3, 2, 3], 
[2, 4, 4, 1, 3, 3], 
[4, 3, 1, 3, 4, 1], 
[4, 1, 3, 4, 3, 1]
]
letting goalBlocksRemaining be 4
letting noSteps be 6
